Route #1: 26 38 11 14 53 35 7
Route #2: 17 3 44 32 25 50 18 24 49
Route #3: 27 15 20 37 36 5 29 45 4
Route #4: 30 48 47 21 28 2
Route #5: 40 9 39 31 10 12
Route #6: 6 33 1 22 42 41 43 23 16 51
Route #7: 46 8 19 54 13 52 34
cost 583
